50
11702

275 482
317 277
462 116
252 974
264 332
552 14
266 912
358 416
991 872
999 363
988 537
640 738
829 247
570 50
562 750
747 932
191 417
209 49
601 550
889 399
697 13
802 609
792 857
6 188
767 396
419 762
178 949
80 310
607 995
172 730
597 910
947 934
709 163
464 526
566 302
653 685
887 327
563 233
439 731
749 999
760 335
647 235
485 521
208 921
127 597
335 24
425 414
13 83
125 865
565 565
